c SAT Generator for power-law distributed variable frequencies
c -g u -v 20 -c 91 -k 3 -p 2.750000 -b 3.200000 -f /home/schmidt/Devel/ni-kop-sat/data/ensemble/ruf20-91/ruf20-91-669 -u 1 -U 1 -s 717773187
p cnf 20 91
-4 -5 17 0
-1 -16 -20 0
2 -12 -19 0
3 -7 17 0
11 12 16 0
-4 -9 14 0
6 7 -9 0
-2 -8 -14 0
-7 -13 14 0
-7 11 -19 0
-3 -14 16 0
-4 8 18 0
2 6 8 0
-1 -4 15 0
1 -12 -19 0
5 -18 20 0
5 -16 -18 0
-12 -14 19 0
8 -11 19 0
1 -4 -9 0
-2 7 -15 0
-1 -2 -9 0
2 11 19 0
-2 4 -19 0
-8 15 18 0
1 11 -15 0
-4 -12 -17 0
-9 17 -20 0
-2 6 -14 0
-1 3 6 0
1 -2 3 0
-7 9 20 0
7 -8 -10 0
-12 -15 16 0
-3 5 10 0
5 12 -19 0
-7 -12 -13 0
-12 -15 -17 0
-5 9 -13 0
-3 -6 11 0
-1 -12 17 0
2 14 -15 0
-5 -7 15 0
11 17 19 0
7 9 16 0
-5 -12 15 0
-10 -17 -18 0
8 9 -19 0
-4 13 20 0
-1 14 15 0
4 -11 -16 0
6 7 -15 0
6 -14 -16 0
9 -17 20 0
5 -8 12 0
-2 -17 19 0
2 6 -8 0
-5 16 -17 0
-13 -14 17 0
-2 -10 -15 0
4 -15 -17 0
-14 -16 -20 0
3 6 -8 0
-1 3 -15 0
4 13 -15 0
3 14 -20 0
1 4 -19 0
-8 -14 -20 0
-5 -18 -19 0
-13 -14 -19 0
-4 -6 -17 0
-2 -6 11 0
-1 -10 -18 0
-2 -4 10 0
-9 -10 -13 0
-1 -4 -20 0
-1 -6 9 0
-4 -6 19 0
-8 -10 -17 0
3 8 10 0
-2 -4 11 0
-11 13 -17 0
4 10 14 0
-7 -11 -15 0
-3 4 -17 0
4 6 -19 0
6 9 13 0
5 7 -14 0
7 8 -19 0
-3 -16 -18 0
-6 10 19 0
